Maximize
  - 5.0377554258345 edge_0_1_0_4 - 4.9088507180624 edge_0_2_0_6
   - 4.1641813550128 edge_0_2_0_9 - 2.3204597667273 edge_0_3_0_3
   - 4.105145572816 edge_0_4_0_5 - 4.289968656634801 edge_0_5_0_9
   - 4.8612565011438 edge_0_5_0_12 - 3.0578730053546 edge_0_6_0_9
   - 2.687499416949 edge_0_6_0_13 - 3.8377971232775 edge_0_7_0_9
   - 2.2123428714738 edge_0_8_0_3 - 4.343199478816 edge_0_9_0_5
   + 0.0979243548632534 edge_1_2_4_6 - 0.3432498893446624 edge_1_3_4_3
   - 0.0469525667266182 edge_1_4_4_5 - 0.7565026488345002 edge_1_5_4_12
   - 1.28724540736389 edge_1_8_4_3 - 0.28508651408299 edge_1_9_4_5
   - 0.0931529168954504 edge_2_1_6_4 + 0.9250424508949612 edge_2_3_6_3
   - 0.2836889376214519 edge_2_3_9_3 + 0.452567302981833 edge_2_4_6_5
   - 0.2759147200733609 edge_2_4_9_5 + 0.4991256625244165 edge_2_5_6_12
   - 0.821530261120474 edge_2_5_9_9 + 0.1256705872749385 edge_2_6_6_9
   - 1.000975032677028 edge_2_6_9_13 - 1.039849784474571 edge_2_7_9_9
   - 0.5578650129011378 edge_2_8_6_3 - 0.903645493300741 edge_2_8_9_3
   - 0.20812949784352 edge_2_9_6_5 - 0.6063610638495436 edge_2_9_9_5
   + 1.055220931679069 edge_3_1_3_4 + 2.047865618053597 edge_3_2_3_6
   + 2.080463857782126 edge_3_2_3_9 + 2.531578452109791 edge_3_4_3_5
   - 0.7322103806575885 edge_3_5_3_9 + 0.9616696126242658 edge_3_5_3_12
   - 0.1722160139800691 edge_3_6_3_9 + 0.7812321531476664 edge_3_6_3_13
   - 1.087545516813611 edge_3_7_3_9 + 1.786462081242278 edge_3_8_3_3
   + 1.6492227268957 edge_3_9_3_5 - 1.074369982846239 edge_4_1_5_4
   - 0.7256065253343162 edge_4_2_5_6 - 0.9728604150248834 edge_4_2_5_9
   - 0.3848374826207173 edge_4_3_5_3 - 0.3638461766550564 edge_4_5_5_9
   - 0.1557313841994739 edge_4_5_5_12 - 0.150426684677038 edge_4_6_5_13
   - 0.4547069453751486 edge_4_8_5_3 - 0.5309359884812738 edge_4_9_5_5
   - 1.231993476179182 edge_5_1_12_4 - 0.4820636265368905 edge_5_2_9_9
   - 0.7145228555907648 edge_5_2_12_6 - 0.2710859577162813 edge_5_3_9_3
   - 0.7628424861896 edge_5_3_12_3 + 0.4790612840271568 edge_5_4_9_5
   + 0.5030106614650358 edge_5_4_12_5 + 0.6445091775242914 edge_5_6_9_13
   + 0.3426922218883242 edge_5_6_12_9 + 0.7318505823014146 edge_5_7_9_9
   + 0.8910289796229447 edge_5_8_9_3 + 0.6035323988326881 edge_5_8_12_3
   - 0.3073568516871134 edge_5_9_9_5 + 0.46552462316642 edge_5_9_12_5
   - 0.7025937556682307 edge_6_1_9_4 - 0.4950354675656272 edge_6_2_9_6
   - 0.8532577006226324 edge_6_2_13_9 - 0.4212842163948525 edge_6_3_9_3
   - 0.2730220849463431 edge_6_3_13_3 - 0.0860310648071248 edge_6_4_9_5
   - 0.430232851151499 edge_6_4_13_5 + 0.1171072802748989 edge_6_5_9_12
   + 0.652557442982541 edge_6_5_13_9 + 0.6400556793787542 edge_6_7_13_9
   + 0.6761380431438858 edge_6_8_9_3 + 0.6195231590325648 edge_6_8_13_3
   + 0.39848818466892 edge_6_9_9_5 + 0.5569573643297383 edge_6_9_13_5
   - 0.2218735070969308 edge_7_2_9_9 - 0.3963980477378075 edge_7_3_9_3
   - 0.3735697157180114 edge_7_4_9_5 + 0.0835876323906812 edge_7_5_9_9
   + 0.2580142257151821 edge_7_6_9_13 + 0.6651304881569952 edge_7_8_9_3
   - 0.0053705276845341 edge_7_9_9_5 + 0.4554906035620945 edge_8_1_3_4
   + 0.2123220793392536 edge_8_2_3_6 + 0.5119709769177794 edge_8_2_3_9
   + 0.4817063705434806 edge_8_3_3_3 + 0.8894237519352778 edge_8_4_3_5
   + 3.621581660594395 edge_8_5_3_9 + 1.909295605586689 edge_8_5_3_12
   + 2.520599411671662 edge_8_6_3_9 + 4.031237460789897 edge_8_6_3_13
   + 3.545177055353288 edge_8_7_3_9 + 2.698984583537411 edge_8_9_3_5
   - 1.973005876409566 edge_9_3_5_3 - 0.8042474723973001 edge_9_8_5_3
Subject To
 one_parent_1: edge_0_1_0_4 + edge_2_1_6_4 + edge_3_1_3_4 + edge_4_1_5_4
   + edge_5_1_12_4 + edge_6_1_9_4 + edge_8_1_3_4 = 1
 one_pos_1: pos_1_4 = 1
 consume_one_flow_unit_1: flow_0_1_0_4 - flow_1_2_4_6 - flow_1_3_4_3
   - flow_1_4_4_5 - flow_1_5_4_12 - flow_1_8_4_3 - flow_1_9_4_5
   + flow_2_1_6_4 + flow_3_1_3_4 + flow_4_1_5_4 + flow_5_1_12_4
   + flow_6_1_9_4 + flow_8_1_3_4 = 1
 one_parent_2: edge_0_2_0_6 + edge_0_2_0_9 + edge_1_2_4_6 + edge_3_2_3_6
   + edge_3_2_3_9 + edge_4_2_5_6 + edge_4_2_5_9 + edge_5_2_9_9
   + edge_5_2_12_6 + edge_6_2_9_6 + edge_6_2_13_9 + edge_7_2_9_9
   + edge_8_2_3_6 + edge_8_2_3_9 = 1
 one_pos_2: pos_2_9 + pos_2_6 = 1
 consume_one_flow_unit_2: flow_0_2_0_6 + flow_0_2_0_9 + flow_1_2_4_6
   - flow_2_1_6_4 - flow_2_3_6_3 - flow_2_3_9_3 - flow_2_4_6_5
   - flow_2_4_9_5 - flow_2_5_6_12 - flow_2_5_9_9 - flow_2_6_6_9
   - flow_2_6_9_13 - flow_2_7_9_9 - flow_2_8_6_3 - flow_2_8_9_3
   - flow_2_9_6_5 - flow_2_9_9_5 + flow_3_2_3_6 + flow_3_2_3_9
   + flow_4_2_5_6 + flow_4_2_5_9 + flow_5_2_9_9 + flow_5_2_12_6
   + flow_6_2_9_6 + flow_6_2_13_9 + flow_7_2_9_9 + flow_8_2_3_6
   + flow_8_2_3_9 = 1
 one_parent_3: edge_0_3_0_3 + edge_1_3_4_3 + edge_2_3_6_3 + edge_2_3_9_3
   + edge_4_3_5_3 + edge_5_3_9_3 + edge_5_3_12_3 + edge_6_3_9_3
   + edge_6_3_13_3 + edge_7_3_9_3 + edge_8_3_3_3 + edge_9_3_5_3 = 1
 one_pos_3: pos_3_3 = 1
 consume_one_flow_unit_3: flow_0_3_0_3 + flow_1_3_4_3 + flow_2_3_6_3
   + flow_2_3_9_3 - flow_3_1_3_4 - flow_3_2_3_6 - flow_3_2_3_9
   - flow_3_4_3_5 - flow_3_5_3_9 - flow_3_5_3_12 - flow_3_6_3_9
   - flow_3_6_3_13 - flow_3_7_3_9 - flow_3_8_3_3 - flow_3_9_3_5
   + flow_4_3_5_3 + flow_5_3_9_3 + flow_5_3_12_3 + flow_6_3_9_3
   + flow_6_3_13_3 + flow_7_3_9_3 + flow_8_3_3_3 + flow_9_3_5_3 = 1
 one_parent_4: edge_0_4_0_5 + edge_1_4_4_5 + edge_2_4_6_5 + edge_2_4_9_5
   + edge_3_4_3_5 + edge_5_4_9_5 + edge_5_4_12_5 + edge_6_4_9_5
   + edge_6_4_13_5 + edge_7_4_9_5 + edge_8_4_3_5 = 1
 one_pos_4: pos_4_5 = 1
 consume_one_flow_unit_4: flow_0_4_0_5 + flow_1_4_4_5 + flow_2_4_6_5
   + flow_2_4_9_5 + flow_3_4_3_5 - flow_4_1_5_4 - flow_4_2_5_6
   - flow_4_2_5_9 - flow_4_3_5_3 - flow_4_5_5_9 - flow_4_5_5_12
   - flow_4_6_5_13 - flow_4_8_5_3 - flow_4_9_5_5 + flow_5_4_9_5
   + flow_5_4_12_5 + flow_6_4_9_5 + flow_6_4_13_5 + flow_7_4_9_5
   + flow_8_4_3_5 = 1
 one_parent_5: edge_0_5_0_9 + edge_0_5_0_12 + edge_1_5_4_12 + edge_2_5_6_12
   + edge_2_5_9_9 + edge_3_5_3_9 + edge_3_5_3_12 + edge_4_5_5_9
   + edge_4_5_5_12 + edge_6_5_9_12 + edge_6_5_13_9 + edge_7_5_9_9
   + edge_8_5_3_9 + edge_8_5_3_12 = 1
 one_pos_5: pos_5_9 + pos_5_12 = 1
 consume_one_flow_unit_5: flow_0_5_0_9 + flow_0_5_0_12 + flow_1_5_4_12
   + flow_2_5_6_12 + flow_2_5_9_9 + flow_3_5_3_9 + flow_3_5_3_12
   + flow_4_5_5_9 + flow_4_5_5_12 - flow_5_1_12_4 - flow_5_2_9_9
   - flow_5_2_12_6 - flow_5_3_9_3 - flow_5_3_12_3 - flow_5_4_9_5
   - flow_5_4_12_5 - flow_5_6_9_13 - flow_5_6_12_9 - flow_5_7_9_9
   - flow_5_8_9_3 - flow_5_8_12_3 - flow_5_9_9_5 - flow_5_9_12_5
   + flow_6_5_9_12 + flow_6_5_13_9 + flow_7_5_9_9 + flow_8_5_3_9
   + flow_8_5_3_12 = 1
 one_parent_6: edge_0_6_0_9 + edge_0_6_0_13 + edge_2_6_6_9 + edge_2_6_9_13
   + edge_3_6_3_9 + edge_3_6_3_13 + edge_4_6_5_13 + edge_5_6_9_13
   + edge_5_6_12_9 + edge_7_6_9_13 + edge_8_6_3_9 + edge_8_6_3_13 = 1
 one_pos_6: pos_6_9 + pos_6_13 = 1
 consume_one_flow_unit_6: flow_0_6_0_9 + flow_0_6_0_13 + flow_2_6_6_9
   + flow_2_6_9_13 + flow_3_6_3_9 + flow_3_6_3_13 + flow_4_6_5_13
   + flow_5_6_9_13 + flow_5_6_12_9 - flow_6_1_9_4 - flow_6_2_9_6
   - flow_6_2_13_9 - flow_6_3_9_3 - flow_6_3_13_3 - flow_6_4_9_5
   - flow_6_4_13_5 - flow_6_5_9_12 - flow_6_5_13_9 - flow_6_7_13_9
   - flow_6_8_9_3 - flow_6_8_13_3 - flow_6_9_9_5 - flow_6_9_13_5
   + flow_7_6_9_13 + flow_8_6_3_9 + flow_8_6_3_13 = 1
 one_parent_7: edge_0_7_0_9 + edge_2_7_9_9 + edge_3_7_3_9 + edge_5_7_9_9
   + edge_6_7_13_9 + edge_8_7_3_9 = 1
 one_pos_7: pos_7_9 = 1
 consume_one_flow_unit_7: flow_0_7_0_9 + flow_2_7_9_9 + flow_3_7_3_9
   + flow_5_7_9_9 + flow_6_7_13_9 - flow_7_2_9_9 - flow_7_3_9_3
   - flow_7_4_9_5 - flow_7_5_9_9 - flow_7_6_9_13 - flow_7_8_9_3
   - flow_7_9_9_5 + flow_8_7_3_9 = 1
 one_parent_8: edge_0_8_0_3 + edge_1_8_4_3 + edge_2_8_6_3 + edge_2_8_9_3
   + edge_3_8_3_3 + edge_4_8_5_3 + edge_5_8_9_3 + edge_5_8_12_3
   + edge_6_8_9_3 + edge_6_8_13_3 + edge_7_8_9_3 + edge_9_8_5_3 = 1
 one_pos_8: pos_8_3 = 1
 consume_one_flow_unit_8: flow_0_8_0_3 + flow_1_8_4_3 + flow_2_8_6_3
   + flow_2_8_9_3 + flow_3_8_3_3 + flow_4_8_5_3 + flow_5_8_9_3
   + flow_5_8_12_3 + flow_6_8_9_3 + flow_6_8_13_3 + flow_7_8_9_3
   - flow_8_1_3_4 - flow_8_2_3_6 - flow_8_2_3_9 - flow_8_3_3_3
   - flow_8_4_3_5 - flow_8_5_3_9 - flow_8_5_3_12 - flow_8_6_3_9
   - flow_8_6_3_13 - flow_8_7_3_9 - flow_8_9_3_5 + flow_9_8_5_3 = 1
 one_parent_9: edge_0_9_0_5 + edge_1_9_4_5 + edge_2_9_6_5 + edge_2_9_9_5
   + edge_3_9_3_5 + edge_4_9_5_5 + edge_5_9_9_5 + edge_5_9_12_5
   + edge_6_9_9_5 + edge_6_9_13_5 + edge_7_9_9_5 + edge_8_9_3_5 = 1
 one_pos_9: pos_9_5 = 1
 consume_one_flow_unit_9: flow_0_9_0_5 + flow_1_9_4_5 + flow_2_9_6_5
   + flow_2_9_9_5 + flow_3_9_3_5 + flow_4_9_5_5 + flow_5_9_9_5
   + flow_5_9_12_5 + flow_6_9_9_5 + flow_6_9_13_5 + flow_7_9_9_5
   + flow_8_9_3_5 - flow_9_3_5_3 - flow_9_8_5_3 = 1
 root_flow: flow_0_1_0_4 + flow_0_2_0_6 + flow_0_2_0_9 + flow_0_3_0_3
   + flow_0_4_0_5 + flow_0_5_0_9 + flow_0_5_0_12 + flow_0_6_0_9
   + flow_0_6_0_13 + flow_0_7_0_9 + flow_0_8_0_3 + flow_0_9_0_5 = 9
 inactive_no_flow_0_1_0_4: flow_0_1_0_4 - 1000 edge_0_1_0_4 <= 0
 inactive_no_flow_0_2_0_6: flow_0_2_0_6 - 1000 edge_0_2_0_6 <= 0
 inactive_no_flow_0_2_0_9: flow_0_2_0_9 - 1000 edge_0_2_0_9 <= 0
 inactive_no_flow_0_3_0_3: flow_0_3_0_3 - 1000 edge_0_3_0_3 <= 0
 inactive_no_flow_0_4_0_5: flow_0_4_0_5 - 1000 edge_0_4_0_5 <= 0
 inactive_no_flow_0_5_0_9: flow_0_5_0_9 - 1000 edge_0_5_0_9 <= 0
 inactive_no_flow_0_5_0_12: flow_0_5_0_12 - 1000 edge_0_5_0_12 <= 0
 inactive_no_flow_0_6_0_9: flow_0_6_0_9 - 1000 edge_0_6_0_9 <= 0
 inactive_no_flow_0_6_0_13: flow_0_6_0_13 - 1000 edge_0_6_0_13 <= 0
 inactive_no_flow_0_7_0_9: flow_0_7_0_9 - 1000 edge_0_7_0_9 <= 0
 inactive_no_flow_0_8_0_3: flow_0_8_0_3 - 1000 edge_0_8_0_3 <= 0
 inactive_no_flow_0_9_0_5: flow_0_9_0_5 - 1000 edge_0_9_0_5 <= 0
 inactive_no_flow_1_2_4_6: flow_1_2_4_6 - 1000 edge_1_2_4_6 <= 0
 inactive_no_flow_1_3_4_3: flow_1_3_4_3 - 1000 edge_1_3_4_3 <= 0
 inactive_no_flow_1_4_4_5: flow_1_4_4_5 - 1000 edge_1_4_4_5 <= 0
 inactive_no_flow_1_5_4_12: flow_1_5_4_12 - 1000 edge_1_5_4_12 <= 0
 inactive_no_flow_1_8_4_3: flow_1_8_4_3 - 1000 edge_1_8_4_3 <= 0
 inactive_no_flow_1_9_4_5: flow_1_9_4_5 - 1000 edge_1_9_4_5 <= 0
 inactive_no_flow_2_1_6_4: flow_2_1_6_4 - 1000 edge_2_1_6_4 <= 0
 inactive_no_flow_2_3_6_3: flow_2_3_6_3 - 1000 edge_2_3_6_3 <= 0
 inactive_no_flow_2_3_9_3: flow_2_3_9_3 - 1000 edge_2_3_9_3 <= 0
 inactive_no_flow_2_4_6_5: flow_2_4_6_5 - 1000 edge_2_4_6_5 <= 0
 inactive_no_flow_2_4_9_5: flow_2_4_9_5 - 1000 edge_2_4_9_5 <= 0
 inactive_no_flow_2_5_6_12: flow_2_5_6_12 - 1000 edge_2_5_6_12 <= 0
 inactive_no_flow_2_5_9_9: flow_2_5_9_9 - 1000 edge_2_5_9_9 <= 0
 inactive_no_flow_2_6_6_9: flow_2_6_6_9 - 1000 edge_2_6_6_9 <= 0
 inactive_no_flow_2_6_9_13: flow_2_6_9_13 - 1000 edge_2_6_9_13 <= 0
 inactive_no_flow_2_7_9_9: flow_2_7_9_9 - 1000 edge_2_7_9_9 <= 0
 inactive_no_flow_2_8_6_3: flow_2_8_6_3 - 1000 edge_2_8_6_3 <= 0
 inactive_no_flow_2_8_9_3: flow_2_8_9_3 - 1000 edge_2_8_9_3 <= 0
 inactive_no_flow_2_9_6_5: flow_2_9_6_5 - 1000 edge_2_9_6_5 <= 0
 inactive_no_flow_2_9_9_5: flow_2_9_9_5 - 1000 edge_2_9_9_5 <= 0
 inactive_no_flow_3_1_3_4: flow_3_1_3_4 - 1000 edge_3_1_3_4 <= 0
 inactive_no_flow_3_2_3_6: flow_3_2_3_6 - 1000 edge_3_2_3_6 <= 0
 inactive_no_flow_3_2_3_9: flow_3_2_3_9 - 1000 edge_3_2_3_9 <= 0
 inactive_no_flow_3_4_3_5: flow_3_4_3_5 - 1000 edge_3_4_3_5 <= 0
 inactive_no_flow_3_5_3_9: flow_3_5_3_9 - 1000 edge_3_5_3_9 <= 0
 inactive_no_flow_3_5_3_12: flow_3_5_3_12 - 1000 edge_3_5_3_12 <= 0
 inactive_no_flow_3_6_3_9: flow_3_6_3_9 - 1000 edge_3_6_3_9 <= 0
 inactive_no_flow_3_6_3_13: flow_3_6_3_13 - 1000 edge_3_6_3_13 <= 0
 inactive_no_flow_3_7_3_9: flow_3_7_3_9 - 1000 edge_3_7_3_9 <= 0
 inactive_no_flow_3_8_3_3: flow_3_8_3_3 - 1000 edge_3_8_3_3 <= 0
 inactive_no_flow_3_9_3_5: flow_3_9_3_5 - 1000 edge_3_9_3_5 <= 0
 inactive_no_flow_4_1_5_4: flow_4_1_5_4 - 1000 edge_4_1_5_4 <= 0
 inactive_no_flow_4_2_5_6: flow_4_2_5_6 - 1000 edge_4_2_5_6 <= 0
 inactive_no_flow_4_2_5_9: flow_4_2_5_9 - 1000 edge_4_2_5_9 <= 0
 inactive_no_flow_4_3_5_3: flow_4_3_5_3 - 1000 edge_4_3_5_3 <= 0
 inactive_no_flow_4_5_5_9: flow_4_5_5_9 - 1000 edge_4_5_5_9 <= 0
 inactive_no_flow_4_5_5_12: flow_4_5_5_12 - 1000 edge_4_5_5_12 <= 0
 inactive_no_flow_4_6_5_13: flow_4_6_5_13 - 1000 edge_4_6_5_13 <= 0
 inactive_no_flow_4_8_5_3: flow_4_8_5_3 - 1000 edge_4_8_5_3 <= 0
 inactive_no_flow_4_9_5_5: flow_4_9_5_5 - 1000 edge_4_9_5_5 <= 0
 inactive_no_flow_5_1_12_4: flow_5_1_12_4 - 1000 edge_5_1_12_4 <= 0
 inactive_no_flow_5_2_9_9: flow_5_2_9_9 - 1000 edge_5_2_9_9 <= 0
 inactive_no_flow_5_2_12_6: flow_5_2_12_6 - 1000 edge_5_2_12_6 <= 0
 inactive_no_flow_5_3_9_3: flow_5_3_9_3 - 1000 edge_5_3_9_3 <= 0
 inactive_no_flow_5_3_12_3: flow_5_3_12_3 - 1000 edge_5_3_12_3 <= 0
 inactive_no_flow_5_4_9_5: flow_5_4_9_5 - 1000 edge_5_4_9_5 <= 0
 inactive_no_flow_5_4_12_5: flow_5_4_12_5 - 1000 edge_5_4_12_5 <= 0
 inactive_no_flow_5_6_9_13: flow_5_6_9_13 - 1000 edge_5_6_9_13 <= 0
 inactive_no_flow_5_6_12_9: flow_5_6_12_9 - 1000 edge_5_6_12_9 <= 0
 inactive_no_flow_5_7_9_9: flow_5_7_9_9 - 1000 edge_5_7_9_9 <= 0
 inactive_no_flow_5_8_9_3: flow_5_8_9_3 - 1000 edge_5_8_9_3 <= 0
 inactive_no_flow_5_8_12_3: flow_5_8_12_3 - 1000 edge_5_8_12_3 <= 0
 inactive_no_flow_5_9_9_5: flow_5_9_9_5 - 1000 edge_5_9_9_5 <= 0
 inactive_no_flow_5_9_12_5: flow_5_9_12_5 - 1000 edge_5_9_12_5 <= 0
 inactive_no_flow_6_1_9_4: flow_6_1_9_4 - 1000 edge_6_1_9_4 <= 0
 inactive_no_flow_6_2_9_6: flow_6_2_9_6 - 1000 edge_6_2_9_6 <= 0
 inactive_no_flow_6_2_13_9: flow_6_2_13_9 - 1000 edge_6_2_13_9 <= 0
 inactive_no_flow_6_3_9_3: flow_6_3_9_3 - 1000 edge_6_3_9_3 <= 0
 inactive_no_flow_6_3_13_3: flow_6_3_13_3 - 1000 edge_6_3_13_3 <= 0
 inactive_no_flow_6_4_9_5: flow_6_4_9_5 - 1000 edge_6_4_9_5 <= 0
 inactive_no_flow_6_4_13_5: flow_6_4_13_5 - 1000 edge_6_4_13_5 <= 0
 inactive_no_flow_6_5_9_12: flow_6_5_9_12 - 1000 edge_6_5_9_12 <= 0
 inactive_no_flow_6_5_13_9: flow_6_5_13_9 - 1000 edge_6_5_13_9 <= 0
 inactive_no_flow_6_7_13_9: flow_6_7_13_9 - 1000 edge_6_7_13_9 <= 0
 inactive_no_flow_6_8_9_3: flow_6_8_9_3 - 1000 edge_6_8_9_3 <= 0
 inactive_no_flow_6_8_13_3: flow_6_8_13_3 - 1000 edge_6_8_13_3 <= 0
 inactive_no_flow_6_9_9_5: flow_6_9_9_5 - 1000 edge_6_9_9_5 <= 0
 inactive_no_flow_6_9_13_5: flow_6_9_13_5 - 1000 edge_6_9_13_5 <= 0
 inactive_no_flow_7_2_9_9: flow_7_2_9_9 - 1000 edge_7_2_9_9 <= 0
 inactive_no_flow_7_3_9_3: flow_7_3_9_3 - 1000 edge_7_3_9_3 <= 0
 inactive_no_flow_7_4_9_5: flow_7_4_9_5 - 1000 edge_7_4_9_5 <= 0
 inactive_no_flow_7_5_9_9: flow_7_5_9_9 - 1000 edge_7_5_9_9 <= 0
 inactive_no_flow_7_6_9_13: flow_7_6_9_13 - 1000 edge_7_6_9_13 <= 0
 inactive_no_flow_7_8_9_3: flow_7_8_9_3 - 1000 edge_7_8_9_3 <= 0
 inactive_no_flow_7_9_9_5: flow_7_9_9_5 - 1000 edge_7_9_9_5 <= 0
 inactive_no_flow_8_1_3_4: flow_8_1_3_4 - 1000 edge_8_1_3_4 <= 0
 inactive_no_flow_8_2_3_6: flow_8_2_3_6 - 1000 edge_8_2_3_6 <= 0
 inactive_no_flow_8_2_3_9: flow_8_2_3_9 - 1000 edge_8_2_3_9 <= 0
 inactive_no_flow_8_3_3_3: flow_8_3_3_3 - 1000 edge_8_3_3_3 <= 0
 inactive_no_flow_8_4_3_5: flow_8_4_3_5 - 1000 edge_8_4_3_5 <= 0
 inactive_no_flow_8_5_3_9: flow_8_5_3_9 - 1000 edge_8_5_3_9 <= 0
 inactive_no_flow_8_5_3_12: flow_8_5_3_12 - 1000 edge_8_5_3_12 <= 0
 inactive_no_flow_8_6_3_9: flow_8_6_3_9 - 1000 edge_8_6_3_9 <= 0
 inactive_no_flow_8_6_3_13: flow_8_6_3_13 - 1000 edge_8_6_3_13 <= 0
 inactive_no_flow_8_7_3_9: flow_8_7_3_9 - 1000 edge_8_7_3_9 <= 0
 inactive_no_flow_8_9_3_5: flow_8_9_3_5 - 1000 edge_8_9_3_5 <= 0
 inactive_no_flow_9_3_5_3: flow_9_3_5_3 - 1000 edge_9_3_5_3 <= 0
 inactive_no_flow_9_8_5_3: flow_9_8_5_3 - 1000 edge_9_8_5_3 <= 0
 arc_0_1_0_4_pos_must_match_v: - edge_0_1_0_4 + pos_1_4 >= 0
 arc_0_2_0_6_pos_must_match_v: - edge_0_2_0_6 + pos_2_6 >= 0
 arc_0_2_0_9_pos_must_match_v: - edge_0_2_0_9 + pos_2_9 >= 0
 arc_0_3_0_3_pos_must_match_v: - edge_0_3_0_3 + pos_3_3 >= 0
 arc_0_4_0_5_pos_must_match_v: - edge_0_4_0_5 + pos_4_5 >= 0
 arc_0_5_0_9_pos_must_match_v: - edge_0_5_0_9 + pos_5_9 >= 0
 arc_0_5_0_12_pos_must_match_v: - edge_0_5_0_12 + pos_5_12 >= 0
 arc_0_6_0_9_pos_must_match_v: - edge_0_6_0_9 + pos_6_9 >= 0
 arc_0_6_0_13_pos_must_match_v: - edge_0_6_0_13 + pos_6_13 >= 0
 arc_0_7_0_9_pos_must_match_v: - edge_0_7_0_9 + pos_7_9 >= 0
 arc_0_8_0_3_pos_must_match_v: - edge_0_8_0_3 + pos_8_3 >= 0
 arc_0_9_0_5_pos_must_match_v: - edge_0_9_0_5 + pos_9_5 >= 0
 arc_1_2_4_6_pos_must_match_u: - edge_1_2_4_6 + pos_1_4 >= 0
 arc_1_2_4_6_pos_must_match_v: - edge_1_2_4_6 + pos_2_6 >= 0
 arc_1_3_4_3_pos_must_match_u: - edge_1_3_4_3 + pos_1_4 >= 0
 arc_1_3_4_3_pos_must_match_v: - edge_1_3_4_3 + pos_3_3 >= 0
 arc_1_4_4_5_pos_must_match_u: - edge_1_4_4_5 + pos_1_4 >= 0
 arc_1_4_4_5_pos_must_match_v: - edge_1_4_4_5 + pos_4_5 >= 0
 arc_1_5_4_12_pos_must_match_u: - edge_1_5_4_12 + pos_1_4 >= 0
 arc_1_5_4_12_pos_must_match_v: - edge_1_5_4_12 + pos_5_12 >= 0
 arc_1_8_4_3_pos_must_match_u: - edge_1_8_4_3 + pos_1_4 >= 0
 arc_1_8_4_3_pos_must_match_v: - edge_1_8_4_3 + pos_8_3 >= 0
 arc_1_9_4_5_pos_must_match_u: - edge_1_9_4_5 + pos_1_4 >= 0
 arc_1_9_4_5_pos_must_match_v: - edge_1_9_4_5 + pos_9_5 >= 0
 arc_2_1_6_4_pos_must_match_u: - edge_2_1_6_4 + pos_2_6 >= 0
 arc_2_1_6_4_pos_must_match_v: - edge_2_1_6_4 + pos_1_4 >= 0
 arc_2_3_6_3_pos_must_match_u: - edge_2_3_6_3 + pos_2_6 >= 0
 arc_2_3_6_3_pos_must_match_v: - edge_2_3_6_3 + pos_3_3 >= 0
 arc_2_3_9_3_pos_must_match_u: - edge_2_3_9_3 + pos_2_9 >= 0
 arc_2_3_9_3_pos_must_match_v: - edge_2_3_9_3 + pos_3_3 >= 0
 arc_2_4_6_5_pos_must_match_u: - edge_2_4_6_5 + pos_2_6 >= 0
 arc_2_4_6_5_pos_must_match_v: - edge_2_4_6_5 + pos_4_5 >= 0
 arc_2_4_9_5_pos_must_match_u: - edge_2_4_9_5 + pos_2_9 >= 0
 arc_2_4_9_5_pos_must_match_v: - edge_2_4_9_5 + pos_4_5 >= 0
 arc_2_5_6_12_pos_must_match_u: - edge_2_5_6_12 + pos_2_6 >= 0
 arc_2_5_6_12_pos_must_match_v: - edge_2_5_6_12 + pos_5_12 >= 0
 arc_2_5_9_9_pos_must_match_u: - edge_2_5_9_9 + pos_2_9 >= 0
 arc_2_5_9_9_pos_must_match_v: - edge_2_5_9_9 + pos_5_9 >= 0
 arc_2_6_6_9_pos_must_match_u: - edge_2_6_6_9 + pos_2_6 >= 0
 arc_2_6_6_9_pos_must_match_v: - edge_2_6_6_9 + pos_6_9 >= 0
 arc_2_6_9_13_pos_must_match_u: - edge_2_6_9_13 + pos_2_9 >= 0
 arc_2_6_9_13_pos_must_match_v: - edge_2_6_9_13 + pos_6_13 >= 0
 arc_2_7_9_9_pos_must_match_u: - edge_2_7_9_9 + pos_2_9 >= 0
 arc_2_7_9_9_pos_must_match_v: - edge_2_7_9_9 + pos_7_9 >= 0
 arc_2_8_6_3_pos_must_match_u: - edge_2_8_6_3 + pos_2_6 >= 0
 arc_2_8_6_3_pos_must_match_v: - edge_2_8_6_3 + pos_8_3 >= 0
 arc_2_8_9_3_pos_must_match_u: - edge_2_8_9_3 + pos_2_9 >= 0
 arc_2_8_9_3_pos_must_match_v: - edge_2_8_9_3 + pos_8_3 >= 0
 arc_2_9_6_5_pos_must_match_u: - edge_2_9_6_5 + pos_2_6 >= 0
 arc_2_9_6_5_pos_must_match_v: - edge_2_9_6_5 + pos_9_5 >= 0
 arc_2_9_9_5_pos_must_match_u: - edge_2_9_9_5 + pos_2_9 >= 0
 arc_2_9_9_5_pos_must_match_v: - edge_2_9_9_5 + pos_9_5 >= 0
 arc_3_1_3_4_pos_must_match_u: - edge_3_1_3_4 + pos_3_3 >= 0
 arc_3_1_3_4_pos_must_match_v: - edge_3_1_3_4 + pos_1_4 >= 0
 arc_3_2_3_6_pos_must_match_u: - edge_3_2_3_6 + pos_3_3 >= 0
 arc_3_2_3_6_pos_must_match_v: - edge_3_2_3_6 + pos_2_6 >= 0
 arc_3_2_3_9_pos_must_match_u: - edge_3_2_3_9 + pos_3_3 >= 0
 arc_3_2_3_9_pos_must_match_v: - edge_3_2_3_9 + pos_2_9 >= 0
 arc_3_4_3_5_pos_must_match_u: - edge_3_4_3_5 + pos_3_3 >= 0
 arc_3_4_3_5_pos_must_match_v: - edge_3_4_3_5 + pos_4_5 >= 0
 arc_3_5_3_9_pos_must_match_u: - edge_3_5_3_9 + pos_3_3 >= 0
 arc_3_5_3_9_pos_must_match_v: - edge_3_5_3_9 + pos_5_9 >= 0
 arc_3_5_3_12_pos_must_match_u: - edge_3_5_3_12 + pos_3_3 >= 0
 arc_3_5_3_12_pos_must_match_v: - edge_3_5_3_12 + pos_5_12 >= 0
 arc_3_6_3_9_pos_must_match_u: - edge_3_6_3_9 + pos_3_3 >= 0
 arc_3_6_3_9_pos_must_match_v: - edge_3_6_3_9 + pos_6_9 >= 0
 arc_3_6_3_13_pos_must_match_u: - edge_3_6_3_13 + pos_3_3 >= 0
 arc_3_6_3_13_pos_must_match_v: - edge_3_6_3_13 + pos_6_13 >= 0
 arc_3_7_3_9_pos_must_match_u: - edge_3_7_3_9 + pos_3_3 >= 0
 arc_3_7_3_9_pos_must_match_v: - edge_3_7_3_9 + pos_7_9 >= 0
 arc_3_8_3_3_pos_must_match_u: - edge_3_8_3_3 + pos_3_3 >= 0
 arc_3_8_3_3_pos_must_match_v: - edge_3_8_3_3 + pos_8_3 >= 0
 arc_3_9_3_5_pos_must_match_u: - edge_3_9_3_5 + pos_3_3 >= 0
 arc_3_9_3_5_pos_must_match_v: - edge_3_9_3_5 + pos_9_5 >= 0
 arc_4_1_5_4_pos_must_match_u: - edge_4_1_5_4 + pos_4_5 >= 0
 arc_4_1_5_4_pos_must_match_v: - edge_4_1_5_4 + pos_1_4 >= 0
 arc_4_2_5_6_pos_must_match_u: - edge_4_2_5_6 + pos_4_5 >= 0
 arc_4_2_5_6_pos_must_match_v: - edge_4_2_5_6 + pos_2_6 >= 0
 arc_4_2_5_9_pos_must_match_u: - edge_4_2_5_9 + pos_4_5 >= 0
 arc_4_2_5_9_pos_must_match_v: - edge_4_2_5_9 + pos_2_9 >= 0
 arc_4_3_5_3_pos_must_match_u: - edge_4_3_5_3 + pos_4_5 >= 0
 arc_4_3_5_3_pos_must_match_v: - edge_4_3_5_3 + pos_3_3 >= 0
 arc_4_5_5_9_pos_must_match_u: - edge_4_5_5_9 + pos_4_5 >= 0
 arc_4_5_5_9_pos_must_match_v: - edge_4_5_5_9 + pos_5_9 >= 0
 arc_4_5_5_12_pos_must_match_u: - edge_4_5_5_12 + pos_4_5 >= 0
 arc_4_5_5_12_pos_must_match_v: - edge_4_5_5_12 + pos_5_12 >= 0
 arc_4_6_5_13_pos_must_match_u: - edge_4_6_5_13 + pos_4_5 >= 0
 arc_4_6_5_13_pos_must_match_v: - edge_4_6_5_13 + pos_6_13 >= 0
 arc_4_8_5_3_pos_must_match_u: - edge_4_8_5_3 + pos_4_5 >= 0
 arc_4_8_5_3_pos_must_match_v: - edge_4_8_5_3 + pos_8_3 >= 0
 arc_4_9_5_5_pos_must_match_u: - edge_4_9_5_5 + pos_4_5 >= 0
 arc_4_9_5_5_pos_must_match_v: - edge_4_9_5_5 + pos_9_5 >= 0
 arc_5_1_12_4_pos_must_match_u: - edge_5_1_12_4 + pos_5_12 >= 0
 arc_5_1_12_4_pos_must_match_v: - edge_5_1_12_4 + pos_1_4 >= 0
 arc_5_2_9_9_pos_must_match_u: - edge_5_2_9_9 + pos_5_9 >= 0
 arc_5_2_9_9_pos_must_match_v: - edge_5_2_9_9 + pos_2_9 >= 0
 arc_5_2_12_6_pos_must_match_u: - edge_5_2_12_6 + pos_5_12 >= 0
 arc_5_2_12_6_pos_must_match_v: - edge_5_2_12_6 + pos_2_6 >= 0
 arc_5_3_9_3_pos_must_match_u: - edge_5_3_9_3 + pos_5_9 >= 0
 arc_5_3_9_3_pos_must_match_v: - edge_5_3_9_3 + pos_3_3 >= 0
 arc_5_3_12_3_pos_must_match_u: - edge_5_3_12_3 + pos_5_12 >= 0
 arc_5_3_12_3_pos_must_match_v: - edge_5_3_12_3 + pos_3_3 >= 0
 arc_5_4_9_5_pos_must_match_u: - edge_5_4_9_5 + pos_5_9 >= 0
 arc_5_4_9_5_pos_must_match_v: - edge_5_4_9_5 + pos_4_5 >= 0
 arc_5_4_12_5_pos_must_match_u: - edge_5_4_12_5 + pos_5_12 >= 0
 arc_5_4_12_5_pos_must_match_v: - edge_5_4_12_5 + pos_4_5 >= 0
 arc_5_6_9_13_pos_must_match_u: - edge_5_6_9_13 + pos_5_9 >= 0
 arc_5_6_9_13_pos_must_match_v: - edge_5_6_9_13 + pos_6_13 >= 0
 arc_5_6_12_9_pos_must_match_u: - edge_5_6_12_9 + pos_5_12 >= 0
 arc_5_6_12_9_pos_must_match_v: - edge_5_6_12_9 + pos_6_9 >= 0
 arc_5_7_9_9_pos_must_match_u: - edge_5_7_9_9 + pos_5_9 >= 0
 arc_5_7_9_9_pos_must_match_v: - edge_5_7_9_9 + pos_7_9 >= 0
 arc_5_8_9_3_pos_must_match_u: - edge_5_8_9_3 + pos_5_9 >= 0
 arc_5_8_9_3_pos_must_match_v: - edge_5_8_9_3 + pos_8_3 >= 0
 arc_5_8_12_3_pos_must_match_u: - edge_5_8_12_3 + pos_5_12 >= 0
 arc_5_8_12_3_pos_must_match_v: - edge_5_8_12_3 + pos_8_3 >= 0
 arc_5_9_9_5_pos_must_match_u: - edge_5_9_9_5 + pos_5_9 >= 0
 arc_5_9_9_5_pos_must_match_v: - edge_5_9_9_5 + pos_9_5 >= 0
 arc_5_9_12_5_pos_must_match_u: - edge_5_9_12_5 + pos_5_12 >= 0
 arc_5_9_12_5_pos_must_match_v: - edge_5_9_12_5 + pos_9_5 >= 0
 arc_6_1_9_4_pos_must_match_u: - edge_6_1_9_4 + pos_6_9 >= 0
 arc_6_1_9_4_pos_must_match_v: - edge_6_1_9_4 + pos_1_4 >= 0
 arc_6_2_9_6_pos_must_match_u: - edge_6_2_9_6 + pos_6_9 >= 0
 arc_6_2_9_6_pos_must_match_v: - edge_6_2_9_6 + pos_2_6 >= 0
 arc_6_2_13_9_pos_must_match_u: - edge_6_2_13_9 + pos_6_13 >= 0
 arc_6_2_13_9_pos_must_match_v: - edge_6_2_13_9 + pos_2_9 >= 0
 arc_6_3_9_3_pos_must_match_u: - edge_6_3_9_3 + pos_6_9 >= 0
 arc_6_3_9_3_pos_must_match_v: - edge_6_3_9_3 + pos_3_3 >= 0
 arc_6_3_13_3_pos_must_match_u: - edge_6_3_13_3 + pos_6_13 >= 0
 arc_6_3_13_3_pos_must_match_v: - edge_6_3_13_3 + pos_3_3 >= 0
 arc_6_4_9_5_pos_must_match_u: - edge_6_4_9_5 + pos_6_9 >= 0
 arc_6_4_9_5_pos_must_match_v: - edge_6_4_9_5 + pos_4_5 >= 0
 arc_6_4_13_5_pos_must_match_u: - edge_6_4_13_5 + pos_6_13 >= 0
 arc_6_4_13_5_pos_must_match_v: - edge_6_4_13_5 + pos_4_5 >= 0
 arc_6_5_9_12_pos_must_match_u: - edge_6_5_9_12 + pos_6_9 >= 0
 arc_6_5_9_12_pos_must_match_v: - edge_6_5_9_12 + pos_5_12 >= 0
 arc_6_5_13_9_pos_must_match_u: - edge_6_5_13_9 + pos_6_13 >= 0
 arc_6_5_13_9_pos_must_match_v: - edge_6_5_13_9 + pos_5_9 >= 0
 arc_6_7_13_9_pos_must_match_u: - edge_6_7_13_9 + pos_6_13 >= 0
 arc_6_7_13_9_pos_must_match_v: - edge_6_7_13_9 + pos_7_9 >= 0
 arc_6_8_9_3_pos_must_match_u: - edge_6_8_9_3 + pos_6_9 >= 0
 arc_6_8_9_3_pos_must_match_v: - edge_6_8_9_3 + pos_8_3 >= 0
 arc_6_8_13_3_pos_must_match_u: - edge_6_8_13_3 + pos_6_13 >= 0
 arc_6_8_13_3_pos_must_match_v: - edge_6_8_13_3 + pos_8_3 >= 0
 arc_6_9_9_5_pos_must_match_u: - edge_6_9_9_5 + pos_6_9 >= 0
 arc_6_9_9_5_pos_must_match_v: - edge_6_9_9_5 + pos_9_5 >= 0
 arc_6_9_13_5_pos_must_match_u: - edge_6_9_13_5 + pos_6_13 >= 0
 arc_6_9_13_5_pos_must_match_v: - edge_6_9_13_5 + pos_9_5 >= 0
 arc_7_2_9_9_pos_must_match_u: - edge_7_2_9_9 + pos_7_9 >= 0
 arc_7_2_9_9_pos_must_match_v: - edge_7_2_9_9 + pos_2_9 >= 0
 arc_7_3_9_3_pos_must_match_u: - edge_7_3_9_3 + pos_7_9 >= 0
 arc_7_3_9_3_pos_must_match_v: - edge_7_3_9_3 + pos_3_3 >= 0
 arc_7_4_9_5_pos_must_match_u: - edge_7_4_9_5 + pos_7_9 >= 0
 arc_7_4_9_5_pos_must_match_v: - edge_7_4_9_5 + pos_4_5 >= 0
 arc_7_5_9_9_pos_must_match_u: - edge_7_5_9_9 + pos_7_9 >= 0
 arc_7_5_9_9_pos_must_match_v: - edge_7_5_9_9 + pos_5_9 >= 0
 arc_7_6_9_13_pos_must_match_u: - edge_7_6_9_13 + pos_7_9 >= 0
 arc_7_6_9_13_pos_must_match_v: - edge_7_6_9_13 + pos_6_13 >= 0
 arc_7_8_9_3_pos_must_match_u: - edge_7_8_9_3 + pos_7_9 >= 0
 arc_7_8_9_3_pos_must_match_v: - edge_7_8_9_3 + pos_8_3 >= 0
 arc_7_9_9_5_pos_must_match_u: - edge_7_9_9_5 + pos_7_9 >= 0
 arc_7_9_9_5_pos_must_match_v: - edge_7_9_9_5 + pos_9_5 >= 0
 arc_8_1_3_4_pos_must_match_u: - edge_8_1_3_4 + pos_8_3 >= 0
 arc_8_1_3_4_pos_must_match_v: - edge_8_1_3_4 + pos_1_4 >= 0
 arc_8_2_3_6_pos_must_match_u: - edge_8_2_3_6 + pos_8_3 >= 0
 arc_8_2_3_6_pos_must_match_v: - edge_8_2_3_6 + pos_2_6 >= 0
 arc_8_2_3_9_pos_must_match_u: - edge_8_2_3_9 + pos_8_3 >= 0
 arc_8_2_3_9_pos_must_match_v: - edge_8_2_3_9 + pos_2_9 >= 0
 arc_8_3_3_3_pos_must_match_u: - edge_8_3_3_3 + pos_8_3 >= 0
 arc_8_3_3_3_pos_must_match_v: - edge_8_3_3_3 + pos_3_3 >= 0
 arc_8_4_3_5_pos_must_match_u: - edge_8_4_3_5 + pos_8_3 >= 0
 arc_8_4_3_5_pos_must_match_v: - edge_8_4_3_5 + pos_4_5 >= 0
 arc_8_5_3_9_pos_must_match_u: - edge_8_5_3_9 + pos_8_3 >= 0
 arc_8_5_3_9_pos_must_match_v: - edge_8_5_3_9 + pos_5_9 >= 0
 arc_8_5_3_12_pos_must_match_u: - edge_8_5_3_12 + pos_8_3 >= 0
 arc_8_5_3_12_pos_must_match_v: - edge_8_5_3_12 + pos_5_12 >= 0
 arc_8_6_3_9_pos_must_match_u: - edge_8_6_3_9 + pos_8_3 >= 0
 arc_8_6_3_9_pos_must_match_v: - edge_8_6_3_9 + pos_6_9 >= 0
 arc_8_6_3_13_pos_must_match_u: - edge_8_6_3_13 + pos_8_3 >= 0
 arc_8_6_3_13_pos_must_match_v: - edge_8_6_3_13 + pos_6_13 >= 0
 arc_8_7_3_9_pos_must_match_u: - edge_8_7_3_9 + pos_8_3 >= 0
 arc_8_7_3_9_pos_must_match_v: - edge_8_7_3_9 + pos_7_9 >= 0
 arc_8_9_3_5_pos_must_match_u: - edge_8_9_3_5 + pos_8_3 >= 0
 arc_8_9_3_5_pos_must_match_v: - edge_8_9_3_5 + pos_9_5 >= 0
 arc_9_3_5_3_pos_must_match_u: - edge_9_3_5_3 + pos_9_5 >= 0
 arc_9_3_5_3_pos_must_match_v: - edge_9_3_5_3 + pos_3_3 >= 0
 arc_9_8_5_3_pos_must_match_u: - edge_9_8_5_3 + pos_9_5 >= 0
 arc_9_8_5_3_pos_must_match_v: - edge_9_8_5_3 + pos_8_3 >= 0
Bounds
Binaries
 edge_0_1_0_4 edge_0_2_0_6 edge_0_2_0_9 edge_0_3_0_3 edge_0_4_0_5
 edge_0_5_0_9 edge_0_5_0_12 edge_0_6_0_9 edge_0_6_0_13 edge_0_7_0_9
 edge_0_8_0_3 edge_0_9_0_5 edge_1_2_4_6 edge_1_3_4_3 edge_1_4_4_5
 edge_1_5_4_12 edge_1_8_4_3 edge_1_9_4_5 edge_2_1_6_4 edge_2_3_6_3
 edge_2_3_9_3 edge_2_4_6_5 edge_2_4_9_5 edge_2_5_6_12 edge_2_5_9_9
 edge_2_6_6_9 edge_2_6_9_13 edge_2_7_9_9 edge_2_8_6_3 edge_2_8_9_3
 edge_2_9_6_5 edge_2_9_9_5 edge_3_1_3_4 edge_3_2_3_6 edge_3_2_3_9
 edge_3_4_3_5 edge_3_5_3_9 edge_3_5_3_12 edge_3_6_3_9 edge_3_6_3_13
 edge_3_7_3_9 edge_3_8_3_3 edge_3_9_3_5 edge_4_1_5_4 edge_4_2_5_6
 edge_4_2_5_9 edge_4_3_5_3 edge_4_5_5_9 edge_4_5_5_12 edge_4_6_5_13
 edge_4_8_5_3 edge_4_9_5_5 edge_5_1_12_4 edge_5_2_9_9 edge_5_2_12_6
 edge_5_3_9_3 edge_5_3_12_3 edge_5_4_9_5 edge_5_4_12_5 edge_5_6_9_13
 edge_5_6_12_9 edge_5_7_9_9 edge_5_8_9_3 edge_5_8_12_3 edge_5_9_9_5
 edge_5_9_12_5 edge_6_1_9_4 edge_6_2_9_6 edge_6_2_13_9 edge_6_3_9_3
 edge_6_3_13_3 edge_6_4_9_5 edge_6_4_13_5 edge_6_5_9_12 edge_6_5_13_9
 edge_6_7_13_9 edge_6_8_9_3 edge_6_8_13_3 edge_6_9_9_5 edge_6_9_13_5
 edge_7_2_9_9 edge_7_3_9_3 edge_7_4_9_5 edge_7_5_9_9 edge_7_6_9_13
 edge_7_8_9_3 edge_7_9_9_5 edge_8_1_3_4 edge_8_2_3_6 edge_8_2_3_9
 edge_8_3_3_3 edge_8_4_3_5 edge_8_5_3_9 edge_8_5_3_12 edge_8_6_3_9
 edge_8_6_3_13 edge_8_7_3_9 edge_8_9_3_5 edge_9_3_5_3 edge_9_8_5_3 pos_1_4
 pos_2_9 pos_2_6 pos_3_3 pos_4_5 pos_5_9 pos_5_12 pos_6_9 pos_6_13 pos_7_9
 pos_8_3 pos_9_5
End
